32	4
24	17	22	19
0	0	0	0	0	4	3	4	2	5
9	5	4	9	10	1	6
1	7	9	4	2	2	18	19
5	5	8	8	3	1	8
10	4	3	4	7	1	7
8	9	6	8	7	1	10
10	9	5	5	8	1	9
5	8	1	10	5	1	11
5	10	5	5	7	1	13
4	10	4	3	6	1	14
2	7	9	12	11	3	12	20	25
2	9	1	7	10	1	16
7	3	6	1	2	1	19
7	5	6	10	6	1	15
9	5	6	7	6	1	17
8	4	3	9	10	1	23
3	4	5	8	6	1	20
10	7	8	10	1	1	21
10	6	9	4	7	2	22	23
10	5	4	4	10	1	31
2	10	9	7	2	2	24	25
4	8	5	5	6	1	25
6	5	3	3	4	1	28
8	4	7	2	3	1	26
5	6	10	10	7	1	27
10	7	4	2	1	1	29
3	1	3	4	5	1	30
9	5	5	8	6	1	32
7	9	6	5	2	1	32
9	8	10	5	3	1	32
4	7	7	7	1	1	32
0	0	0	0	0	0
